data/solutions/recovery/degenerate/intermediate/flexible/degenerate_intermediate_instance23/10.sol
Elapsed time: 100.11
Upper bound: 227969991.0
Planning weighted value: 9.22908186765e+11
C[0]=227969991.0
C[1]=227937403.0
C[2]=227398142.0
C[3]=227164632.0
C[4]=226648175.0
C[5]=225988319.0
C[6]=225871032.0
C[7]=224825701.0
C[8]=224061086.0
C[9]=223005479.0
C[10]=221535940.0
C[11]=0.0
y[0]=0
y[1]=7
y[2]=0
y[3]=10
y[4]=6
y[5]=7
y[6]=2
y[7]=0
y[8]=8
y[9]=2
y[10]=2
y[11]=5
y[12]=3
y[13]=5
y[14]=1
y[15]=1
y[16]=2
y[17]=10
y[18]=5
y[19]=5
y[20]=1
y[21]=10
y[22]=7
y[23]=1
y[24]=2
y[25]=2
y[26]=2
y[27]=8
y[28]=0
y[29]=8
y[30]=4
y[31]=6
y[32]=10
y[33]=4
y[34]=9
y[35]=4
y[36]=9
y[37]=6
y[38]=6
y[39]=1
y[40]=0
y[41]=1
y[42]=10
y[43]=2
y[44]=3
y[45]=9
y[46]=3
y[47]=8
y[48]=3
y[49]=10
y[50]=9
y[51]=8
y[52]=0
y[53]=3
y[54]=3
y[55]=3
y[56]=4
y[57]=7
y[58]=6
y[59]=9
y[60]=4
y[61]=1
y[62]=5
y[63]=8
y[64]=9
y[65]=6
y[66]=8
y[67]=7
y[68]=7
y[69]=6
y[70]=9
y[71]=4
y[72]=7
y[73]=5
y[74]=8
y[75]=3
y[76]=3
y[77]=10
