data/solutions/recovery/degenerate/intermediate/flexible/degenerate_intermediate_instance23/10.log

Log started (V12.6.3.0) Sat Apr 21 14:45:17 2018

New value for default parallel thread count: 1

Problem '/tmp/tmpuCR3rK.pyomo.lp' read.
Read time = 0.01 sec. (0.85 ticks)

Problem name         : /tmp/tmpuCR3rK.pyomo.lp
Objective sense      : Minimize
Variables            :     950  [Nneg: 1,  Binary: 936,  General Integer: 13]
Objective nonzeros   :       1
Linear constraints   :     182  [Less: 90,  Equal: 92]
  Nonzeros           :   61117
  RHS nonzeros       :     157

Variables            : Min LB: 0.000000         Max UB: 1.000000       
Objective nonzeros   : Min   : 1.000000         Max   : 1.000000       
Linear constraints   :
  Nonzeros           : Min   : 1.000000         Max   : 6.145599e+07   
  RHS nonzeros       : Min   : 1.000000         Max   : 8.000000       
Tried aggregator 2 times.
MIP Presolve eliminated 81 rows and 140 columns.
Aggregator did 6 substitutions.
Reduced MIP has 95 rows, 804 columns, and 2247 nonzeros.
Reduced MIP has 792 binaries, 12 generals, 0 SOSs, and 0 indicators.
Presolve time = 0.01 sec. (11.04 ticks)
Found incumbent of value 8.4915160e+08 after 0.01 sec. (12.59 ticks)
Probing time = 0.00 sec. (1.59 ticks)
Tried aggregator 1 time.
Reduced MIP has 95 rows, 804 columns, and 2247 nonzeros.
Reduced MIP has 792 binaries, 12 generals, 0 SOSs, and 0 indicators.
Presolve time = 0.00 sec. (1.15 ticks)
Probing time = 0.00 sec. (1.59 ticks)
Clique table members: 72.
MIP emphasis: balance optimality and feasibility.
MIP search method: dynamic search.
Parallel mode: none, using 1 thread.
Root relaxation solution time = 0.00 sec. (1.38 ticks)

        Nodes                                         Cuts/
   Node  Left     Objective  IInf  Best Integer    Best Bound    ItCnt     Gap

*     0+    0                       8.49152e+08        0.0000           100.00%
      0     0   2.25673e+08    29   8.49152e+08   2.25673e+08      126   73.42%
      0     0   2.25673e+08    20   8.49152e+08      Fract: 4      142   73.42%
      0     0   2.25673e+08    29   8.49152e+08      Fract: 9      172   73.42%
*     0+    0                       2.68399e+08   2.25673e+08            15.92%
*     0+    0                       2.54782e+08   2.25673e+08            11.43%
*     0+    0                       2.39173e+08   2.25673e+08             5.64%
      0     2   2.25673e+08    19   2.39173e+08   2.25673e+08      172    5.64%
Elapsed time = 0.05 sec. (51.75 ticks, tree = 0.01 MB, solutions = 4)
*   220+  183                       2.33964e+08   2.25673e+08             3.54%
*   440+  390                       2.33520e+08   2.25673e+08             3.36%
*   540+  453                       2.33471e+08   2.25673e+08             3.34%
*   540+  451                       2.32800e+08   2.25673e+08             3.06%
    770   612        cutoff         2.32800e+08   2.25673e+08     5340    3.06%
    771   613   2.25699e+08    34   2.32800e+08   2.25673e+08     5342    3.06%
    772   614   2.25699e+08    34   2.32800e+08   2.25673e+08     5346    3.06%
    773   615   2.25699e+08    35   2.32800e+08   2.25673e+08     5351    3.06%
    774   614        cutoff         2.32800e+08   2.25673e+08     5367    3.06%
    775   615   2.25804e+08    34   2.32800e+08   2.25673e+08     5375    3.06%
    776   614        cutoff         2.32800e+08   2.25673e+08     5394    3.06%
    777   615   2.25804e+08    35   2.32800e+08   2.25673e+08     5398    3.06%
    778   614        cutoff         2.32800e+08   2.25673e+08     5415    3.06%
*  1000+  759                       2.31717e+08   2.25673e+08             2.61%
*  1149+  752                       2.29567e+08   2.25673e+08             1.70%
*  1150+  602                       2.29012e+08   2.25673e+08             1.46%
   1451   481   2.25673e+08    22   2.29012e+08   2.25673e+08     9754    1.46%
Elapsed time = 0.87 sec. (1041.50 ticks, tree = 0.27 MB, solutions = 11)
   2196   415        cutoff         2.29012e+08   2.25673e+08    17194    1.46%
   2197   416   2.26016e+08    48   2.29012e+08   2.25673e+08    17376    1.46%
   2198   417   2.26016e+08    49   2.29012e+08   2.25673e+08    17379    1.46%
   2199   418   2.26143e+08    48   2.29012e+08   2.25673e+08    17398    1.46%
   2200   419   2.26156e+08    48   2.29012e+08   2.25673e+08    17405    1.46%
   2201   420   2.26295e+08    47   2.29012e+08   2.25673e+08    17408    1.46%
   2202   421   2.26297e+08    48   2.29012e+08   2.25673e+08    17418    1.46%
   2203   422   2.26300e+08    48   2.29012e+08   2.25673e+08    17421    1.46%
   2204   423   2.26305e+08    48   2.29012e+08   2.25673e+08    17423    1.46%
   2205   424   2.26347e+08    43   2.29012e+08   2.25673e+08    17439    1.46%
Elapsed time = 1.66 sec. (2011.03 ticks, tree = 0.25 MB, solutions = 11)
   4793  2620    infeasible         2.29012e+08   2.25673e+08    32300    1.46%
   4794  2619        cutoff         2.29012e+08   2.25673e+08    32371    1.46%
   4795  2618    infeasible         2.29012e+08   2.25673e+08    32475    1.46%
   4796  2617    infeasible         2.29012e+08   2.25673e+08    32579    1.46%
   4797  2616    infeasible         2.29012e+08   2.25673e+08    32579    1.46%
   4798  2615    infeasible         2.29012e+08   2.25673e+08    32579    1.46%
   4799  2614        cutoff         2.29012e+08   2.25673e+08    32613    1.46%
   4800  2613        cutoff         2.29012e+08   2.25673e+08    32667    1.46%
   4801  2612    infeasible         2.29012e+08   2.25673e+08    32776    1.46%
   4802  2612   2.26648e+08    27   2.29012e+08   2.25673e+08    32900    1.46%
Elapsed time = 2.45 sec. (2987.61 ticks, tree = 1.73 MB, solutions = 11)
   7251  4311   2.25673e+08    29   2.29012e+08   2.25673e+08    52488    1.46%
   7252  4312   2.25673e+08    34   2.29012e+08   2.25673e+08    52494    1.46%
   7253  4313   2.25673e+08    33   2.29012e+08   2.25673e+08    52522    1.46%
   7254  4314   2.25673e+08    37   2.29012e+08   2.25673e+08    52546    1.46%
   7255  4315   2.25673e+08    36   2.29012e+08   2.25673e+08    52550    1.46%
   7256  4316   2.26281e+08    44   2.29012e+08   2.25673e+08    52582    1.46%
   7257  4315        cutoff         2.29012e+08   2.25673e+08    52602    1.46%
   7258  4314        cutoff         2.29012e+08   2.25673e+08    52610    1.46%
   7259  4313        cutoff         2.29012e+08   2.25673e+08    52613    1.46%
   7260  4312        cutoff         2.29012e+08   2.25673e+08    52692    1.46%
Elapsed time = 3.18 sec. (3948.48 ticks, tree = 2.86 MB, solutions = 11)
   9430  6114        cutoff         2.29012e+08   2.25673e+08    75448    1.46%
   9431  6115   2.27076e+08    23   2.29012e+08   2.25673e+08    75457    1.46%
   9432  6116   2.27076e+08    26   2.29012e+08   2.25673e+08    75459    1.46%
   9433  6117   2.27076e+08    27   2.29012e+08   2.25673e+08    75464    1.46%
   9434  6118   2.27076e+08    21   2.29012e+08   2.25673e+08    75469    1.46%
   9435  6119   2.27076e+08    19   2.29012e+08   2.25673e+08    75470    1.46%
   9436  6120   2.27076e+08    21   2.29012e+08   2.25673e+08    75472    1.46%
   9437  6120   2.27076e+08    22   2.29012e+08   2.25673e+08    75474    1.46%
   9438  6121   2.27076e+08    22   2.29012e+08   2.25673e+08    75475    1.46%
   9439  6121   2.27076e+08    22   2.29012e+08   2.25673e+08    75476    1.46%
Elapsed time = 3.92 sec. (4906.27 ticks, tree = 3.96 MB, solutions = 11)
  12088  8508   2.25673e+08    28   2.29012e+08   2.25673e+08    97123    1.46%
  12089  8509   2.25673e+08    25   2.29012e+08   2.25673e+08    97127    1.46%
  12090  8510   2.25673e+08    26   2.29012e+08   2.25673e+08    97141    1.46%
  12091  8511   2.26157e+08    37   2.29012e+08   2.25673e+08    97299    1.46%
  12092  8510        cutoff         2.29012e+08   2.25673e+08    97306    1.46%
  12093  8511   2.26157e+08    36   2.29012e+08   2.25673e+08    97308    1.46%
  12094  8512   2.26157e+08    34   2.29012e+08   2.25673e+08    97309    1.46%
  12095  8512   2.26157e+08    33   2.29012e+08   2.25673e+08    97321    1.46%
  12096  8513   2.26157e+08    33   2.29012e+08   2.25673e+08    97325    1.46%
  12097  8514   2.26157e+08    35   2.29012e+08   2.25673e+08    97330    1.46%
Elapsed time = 4.63 sec. (5864.69 ticks, tree = 5.68 MB, solutions = 11)
  14100 10296   2.25871e+08    22   2.29012e+08   2.25673e+08   121161    1.46%
  14101 10297   2.25871e+08    21   2.29012e+08   2.25673e+08   121167    1.46%
  14102 10298   2.25871e+08    28   2.29012e+08   2.25673e+08   121201    1.46%
  14103 10297        cutoff         2.29012e+08   2.25673e+08   121297    1.46%
  14104 10296        cutoff         2.29012e+08   2.25673e+08   121368    1.46%
  14105 10295    infeasible         2.29012e+08   2.25673e+08   121401    1.46%
  14106 10296   2.25673e+08    46   2.29012e+08   2.25673e+08   121536    1.46%
  14107 10297   2.25673e+08    40   2.29012e+08   2.25673e+08   121540    1.46%
  14108 10298   2.25673e+08    36   2.29012e+08   2.25673e+08   121552    1.46%
  14109 10299   2.25673e+08    35   2.29012e+08   2.25673e+08   121561    1.46%
Elapsed time = 5.37 sec. (6834.18 ticks, tree = 6.86 MB, solutions = 11)
  16982 12955   2.26514e+08    33   2.29012e+08   2.25673e+08   143242    1.46%
  16983 12956   2.26514e+08    31   2.29012e+08   2.25673e+08   143255    1.46%
  16984 12957   2.26514e+08    32   2.29012e+08   2.25673e+08   143259    1.46%
  16985 12958   2.26514e+08    31   2.29012e+08   2.25673e+08   143260    1.46%
  16986 12959   2.26514e+08    36   2.29012e+08   2.25673e+08   143274    1.46%
  16987 12960   2.26514e+08    34   2.29012e+08   2.25673e+08   143275    1.46%
  16988 12961   2.26514e+08    32   2.29012e+08   2.25673e+08   143276    1.46%
  16989 12962   2.26915e+08    31   2.29012e+08   2.25673e+08   143303    1.46%
  16990 12962   2.26915e+08    30   2.29012e+08   2.25673e+08   143306    1.46%
  16991 12963   2.26954e+08    30   2.29012e+08   2.25673e+08   143310    1.46%
Elapsed time = 6.08 sec. (7790.31 ticks, tree = 8.57 MB, solutions = 11)
  19618 15257   2.25673e+08    26   2.29012e+08   2.25673e+08   167376    1.46%
  19619 15258   2.25673e+08    23   2.29012e+08   2.25673e+08   167382    1.46%
  19620 15259   2.25673e+08    24   2.29012e+08   2.25673e+08   167385    1.46%
  19621 15260   2.25673e+08    30   2.29012e+08   2.25673e+08   167412    1.46%
  19622 15261   2.26174e+08    41   2.29012e+08   2.25673e+08   167524    1.46%
  19623 15262   2.26174e+08    36   2.29012e+08   2.25673e+08   167526    1.46%
  19624 15263   2.26174e+08    32   2.29012e+08   2.25673e+08   167527    1.46%
  19625 15264   2.26390e+08    33   2.29012e+08   2.25673e+08   167578    1.46%
  19626 15265   2.26411e+08    31   2.29012e+08   2.25673e+08   167580    1.46%
  19627 15266   2.26411e+08    31   2.29012e+08   2.25673e+08   167581    1.46%
Elapsed time = 6.81 sec. (8750.57 ticks, tree = 10.07 MB, solutions = 11)
  21902 17257   2.25673e+08    28   2.29012e+08   2.25673e+08   190417    1.46%
  21903 17258   2.25673e+08    27   2.29012e+08   2.25673e+08   190455    1.46%
  21904 17259   2.25673e+08    27   2.29012e+08   2.25673e+08   190457    1.46%
  21905 17260   2.25673e+08    25   2.29012e+08   2.25673e+08   190462    1.46%
  21906 17261   2.25673e+08    24   2.29012e+08   2.25673e+08   190479    1.46%
  21907 17262   2.25673e+08    21   2.29012e+08   2.25673e+08   190501    1.46%
  21908 17263   2.25673e+08    23   2.29012e+08   2.25673e+08   190519    1.46%
  21909 17264   2.25886e+08    34   2.29012e+08   2.25673e+08   190664    1.46%
  21910 17265   2.25699e+08    35   2.29012e+08   2.25673e+08   190688    1.46%
  27791 22393   2.25759e+08    32   2.29012e+08   2.25673e+08   261210    1.46%
Elapsed time = 9.68 sec. (12565.47 ticks, tree = 15.12 MB, solutions = 11)
  35154 28714        cutoff         2.29012e+08   2.25673e+08   348237    1.46%
  35155 28715   2.25673e+08    28   2.29012e+08   2.25673e+08   348346    1.46%
  35156 28716   2.25700e+08    54   2.29012e+08   2.25673e+08   348546    1.46%
  35157 28717   2.25700e+08    54   2.29012e+08   2.25673e+08   348547    1.46%
  35158 28718   2.25709e+08    53   2.29012e+08   2.25673e+08   348548    1.46%
  35159 28719   2.25709e+08    50   2.29012e+08   2.25673e+08   348549    1.46%
  35160 28720   2.25740e+08    47   2.29012e+08   2.25673e+08   348550    1.46%
  35161 28721   2.25740e+08    46   2.29012e+08   2.25673e+08   348557    1.46%
  35162 28722   2.25742e+08    47   2.29012e+08   2.25673e+08   348559    1.46%
  35163 28723   2.25746e+08    46   2.29012e+08   2.25673e+08   348563    1.46%
Elapsed time = 12.51 sec. (16413.65 ticks, tree = 19.28 MB, solutions = 11)
  40901 33699   2.25673e+08    39   2.29012e+08   2.25673e+08   435614    1.46%
  40902 33700   2.25673e+08    36   2.29012e+08   2.25673e+08   435616    1.46%
  40903 33701   2.25687e+08    38   2.29012e+08   2.25673e+08   435680    1.46%
  40904 33702   2.25687e+08    37   2.29012e+08   2.25673e+08   435729    1.46%
  40905 33703   2.25687e+08    38   2.29012e+08   2.25673e+08   435752    1.46%
  40906 33704   2.25687e+08    39   2.29012e+08   2.25673e+08   435766    1.46%
  40907 33705   2.25746e+08    38   2.29012e+08   2.25673e+08   435782    1.46%
  40908 33706   2.25746e+08    36   2.29012e+08   2.25673e+08   435793    1.46%
  40909 33707   2.25785e+08    38   2.29012e+08   2.25673e+08   435805    1.46%
  40910 33708   2.25785e+08    36   2.29012e+08   2.25673e+08   435812    1.46%
Elapsed time = 15.24 sec. (20244.05 ticks, tree = 23.35 MB, solutions = 11)
  45432 37209   2.28299e+08    36   2.29012e+08   2.25673e+08   525952    1.46%
  45433 37208        cutoff         2.29012e+08   2.25673e+08   525955    1.46%
  45434 37209   2.25673e+08    45   2.29012e+08   2.25673e+08   526116    1.46%
  45435 37210   2.25673e+08    39   2.29012e+08   2.25673e+08   526128    1.46%
  45436 37211   2.25673e+08    36   2.29012e+08   2.25673e+08   526162    1.46%
  45437 37212   2.26613e+08    30   2.29012e+08   2.25673e+08   526223    1.46%
  45438 37211        cutoff         2.29012e+08   2.25673e+08   526249    1.46%
  45439 37210        cutoff         2.29012e+08   2.25673e+08   526280    1.46%
  45440 37209    infeasible         2.29012e+08   2.25673e+08   526439    1.46%
  45441 37208    infeasible         2.29012e+08   2.25673e+08   526573    1.46%
Elapsed time = 18.05 sec. (24110.23 ticks, tree = 25.66 MB, solutions = 11)
* 49051+39829                       2.29003e+08   2.25673e+08             1.45%
  49052 39832   2.25677e+08    59   2.29003e+08   2.25673e+08   605280    1.45%
  49053 39833   2.25677e+08    58   2.29003e+08   2.25673e+08   605281    1.45%
  49054 39834   2.25677e+08    58   2.29003e+08   2.25673e+08   605282    1.45%
  49055 39835   2.25683e+08    50   2.29003e+08   2.25673e+08   605295    1.45%
  49056 39836   2.25683e+08    50   2.29003e+08   2.25673e+08   605296    1.45%
  49057 39837   2.25683e+08    51   2.29003e+08   2.25673e+08   605299    1.45%
  49058 39838   2.25684e+08    50   2.29003e+08   2.25673e+08   605300    1.45%
  49059 39839   2.25689e+08    55   2.29003e+08   2.25673e+08   605309    1.45%
  49060 39840   2.25690e+08    45   2.29003e+08   2.25673e+08   605314    1.45%
  49061 39841   2.25690e+08    45   2.29003e+08   2.25673e+08   605315    1.45%
Elapsed time = 20.81 sec. (27934.33 ticks, tree = 27.38 MB, solutions = 12)
* 49351+39780                       2.28697e+08   2.25673e+08             1.32%
* 53251+42836                       2.28573e+08   2.25673e+08             1.27%
* 53351+42893                       2.28555e+08   2.25673e+08             1.26%
* 53551+41808                       2.28078e+08   2.25673e+08             1.05%
  54324 42292   2.26449e+08    29   2.28078e+08   2.25673e+08   665087    1.05%
  54325 42293   2.26449e+08    29   2.28078e+08   2.25673e+08   665089    1.05%
  54326 42294   2.26449e+08    29   2.28078e+08   2.25673e+08   665090    1.05%
  54327 42295   2.27047e+08    28   2.28078e+08   2.25673e+08   665100    1.05%
  54328 42295   2.27277e+08    25   2.28078e+08   2.25673e+08   665101    1.05%
  54329 42296   2.27277e+08    24   2.28078e+08   2.25673e+08   665102    1.05%
  54330 42297   2.27277e+08    24   2.28078e+08   2.25673e+08   665103    1.05%
  54331 42298   2.27887e+08    24   2.28078e+08   2.25673e+08   665118    1.05%
  54332 42297        cutoff         2.28078e+08   2.25673e+08   665120    1.05%
  54333 42296    infeasible         2.28078e+08   2.25673e+08   665120    1.05%
Elapsed time = 23.96 sec. (31752.16 ticks, tree = 28.88 MB, solutions = 16)
  61240 47584   2.25988e+08    31   2.28078e+08   2.25673e+08   735230    1.05%
  61241 47583        cutoff         2.28078e+08   2.25673e+08   735233    1.05%
  61242 47583   2.26615e+08    28   2.28078e+08   2.25673e+08   735244    1.05%
  61243 47584   2.26615e+08    28   2.28078e+08   2.25673e+08   735245    1.05%
  61244 47585   2.26692e+08    28   2.28078e+08   2.25673e+08   735247    1.05%
  61245 47586   2.26732e+08    29   2.28078e+08   2.25673e+08   735251    1.05%
  61246 47587   2.26783e+08    29   2.28078e+08   2.25673e+08   735252    1.05%
  61247 47588   2.26901e+08    28   2.28078e+08   2.25673e+08   735256    1.05%
  61248 47589   2.26901e+08    29   2.28078e+08   2.25673e+08   735261    1.05%
  61249 47590   2.27154e+08    26   2.28078e+08   2.25673e+08   735263    1.05%
Elapsed time = 27.36 sec. (35569.17 ticks, tree = 32.25 MB, solutions = 16)
  68786 53837   2.25695e+08    34   2.28078e+08   2.25673e+08   797304    1.05%
  68787 53838   2.25695e+08    34   2.28078e+08   2.25673e+08   797306    1.05%
  68788 53839   2.25696e+08    37   2.28078e+08   2.25673e+08   797310    1.05%
  68789 53840   2.25696e+08    37   2.28078e+08   2.25673e+08   797311    1.05%
  68790 53841   2.25696e+08    37   2.28078e+08   2.25673e+08   797312    1.05%
  68791 53842   2.25698e+08    35   2.28078e+08   2.25673e+08   797328    1.05%
  68792 53843   2.25698e+08    34   2.28078e+08   2.25673e+08   797329    1.05%
  68793 53844   2.25698e+08    34   2.28078e+08   2.25673e+08   797330    1.05%
  68794 53845   2.25699e+08    35   2.28078e+08   2.25673e+08   797333    1.05%
  68795 53846   2.25703e+08    36   2.28078e+08   2.25673e+08   797337    1.05%
Elapsed time = 30.70 sec. (39386.55 ticks, tree = 36.14 MB, solutions = 16)
  77178 61049   2.25705e+08    35   2.28078e+08   2.25673e+08   865183    1.05%
  77179 61050   2.25705e+08    34   2.28078e+08   2.25673e+08   865184    1.05%
  77180 61051   2.25705e+08    34   2.28078e+08   2.25673e+08   865185    1.05%
  77181 61052   2.25705e+08    34   2.28078e+08   2.25673e+08   865191    1.05%
  77182 61053   2.25705e+08    34   2.28078e+08   2.25673e+08   865192    1.05%
  77183 61054   2.25705e+08    34   2.28078e+08   2.25673e+08   865193    1.05%
  77184 61053        cutoff         2.28078e+08   2.25673e+08   865230    1.05%
  77185 61054   2.25705e+08    34   2.28078e+08   2.25673e+08   865235    1.05%
  77186 61055   2.25705e+08    33   2.28078e+08   2.25673e+08   865238    1.05%
  77187 61056   2.25705e+08    33   2.28078e+08   2.25673e+08   865241    1.05%
Elapsed time = 34.09 sec. (43206.28 ticks, tree = 40.66 MB, solutions = 16)
  86223 68720   2.26882e+08    29   2.28078e+08   2.25673e+08   925164    1.05%
  86224 68721   2.26882e+08    28   2.28078e+08   2.25673e+08   925166    1.05%
  86225 68721   2.26882e+08    28   2.28078e+08   2.25673e+08   925167    1.05%
  86226 68720        cutoff         2.28078e+08   2.25673e+08   925168    1.05%
  86227 68721   2.25685e+08    32   2.28078e+08   2.25673e+08   925207    1.05%
  86228 68722   2.25685e+08    32   2.28078e+08   2.25673e+08   925212    1.05%
  86229 68723   2.25685e+08    32   2.28078e+08   2.25673e+08   925220    1.05%
  86230 68724   2.25685e+08    32   2.28078e+08   2.25673e+08   925223    1.05%
  86231 68725   2.25685e+08    32   2.28078e+08   2.25673e+08   925240    1.05%
  86232 68726   2.25685e+08    32   2.28078e+08   2.25673e+08   925249    1.05%
Elapsed time = 37.40 sec. (47025.42 ticks, tree = 47.45 MB, solutions = 16)
  94367 75346   2.25857e+08    33   2.28078e+08   2.25673e+08   995303    1.05%
  94368 75347   2.25857e+08    32   2.28078e+08   2.25673e+08   995306    1.05%
  94369 75348   2.25857e+08    32   2.28078e+08   2.25673e+08   995307    1.05%
  94370 75349   2.25857e+08    32   2.28078e+08   2.25673e+08   995308    1.05%
  94371 75350   2.25857e+08    32   2.28078e+08   2.25673e+08   995309    1.05%
  94372 75351   2.25857e+08    32   2.28078e+08   2.25673e+08   995310    1.05%
  94373 75352   2.25857e+08    32   2.28078e+08   2.25673e+08   995311    1.05%
  94374 75353   2.25857e+08    32   2.28078e+08   2.25673e+08   995312    1.05%
  94375 75354   2.25857e+08    32   2.28078e+08   2.25673e+08   995313    1.05%
  94376 75355   2.25857e+08    32   2.28078e+08   2.25673e+08   995314    1.05%
Elapsed time = 40.81 sec. (50844.24 ticks, tree = 51.65 MB, solutions = 16)
 101685 81290   2.26055e+08    31   2.28078e+08   2.25673e+08  1060489    1.05%
 101686 81291   2.26173e+08    30   2.28078e+08   2.25673e+08  1060491    1.05%
 101687 81292   2.26173e+08    30   2.28078e+08   2.25673e+08  1060500    1.05%
 101688 81293   2.26173e+08    30   2.28078e+08   2.25673e+08  1060509    1.05%
 101689 81294   2.26173e+08    30   2.28078e+08   2.25673e+08  1060510    1.05%
 101690 81295   2.26182e+08    31   2.28078e+08   2.25673e+08  1060531    1.05%
 101691 81296   2.26182e+08    31   2.28078e+08   2.25673e+08  1060538    1.05%
 101692 81295        cutoff         2.28078e+08   2.25673e+08  1060543    1.05%
 101693 81294        cutoff         2.28078e+08   2.25673e+08  1060552    1.05%
 101694 81295   2.25673e+08    23   2.28078e+08   2.25673e+08  1060567    1.05%
Elapsed time = 44.18 sec. (54665.06 ticks, tree = 55.42 MB, solutions = 16)
 109041 87325   2.25673e+08    23   2.28078e+08   2.25673e+08  1130561    1.05%
 109042 87326   2.25673e+08    21   2.28078e+08   2.25673e+08  1130563    1.05%
 109043 87327   2.25673e+08    23   2.28078e+08   2.25673e+08  1130571    1.05%
 109044 87328   2.25673e+08    25   2.28078e+08   2.25673e+08  1130595    1.05%
 109045 87329   2.25673e+08    27   2.28078e+08   2.25673e+08  1130648    1.05%
 109046 87330   2.25673e+08    27   2.28078e+08   2.25673e+08  1130649    1.05%
 109047 87331   2.25673e+08    23   2.28078e+08   2.25673e+08  1130660    1.05%
 109048 87332   2.25674e+08    34   2.28078e+08   2.25673e+08  1130773    1.05%
 109049 87333   2.25703e+08    32   2.28078e+08   2.25673e+08  1130810    1.05%
 109050 87334   2.25711e+08    35   2.28078e+08   2.25673e+08  1130814    1.05%
Elapsed time = 47.59 sec. (58488.29 ticks, tree = 59.25 MB, solutions = 16)
 115958 92422   2.25673e+08    24   2.28078e+08   2.25673e+08  1195300    1.05%
 115959 92423   2.25673e+08    24   2.28078e+08   2.25673e+08  1195307    1.05%
 115960 92424   2.25673e+08    24   2.28078e+08   2.25673e+08  1195310    1.05%
 115961 92425   2.25673e+08    24   2.28078e+08   2.25673e+08  1195311    1.05%
 115962 92426   2.25673e+08    24   2.28078e+08   2.25673e+08  1195312    1.05%
 115963 92427   2.25673e+08    23   2.28078e+08   2.25673e+08  1195314    1.05%
 115964 92428   2.25673e+08    24   2.28078e+08   2.25673e+08  1195338    1.05%
 115965 92429   2.25673e+08    24   2.28078e+08   2.25673e+08  1195359    1.05%
 115966 92430   2.25673e+08    23   2.28078e+08   2.25673e+08  1195365    1.05%
 115967 92431   2.25863e+08    36   2.28078e+08   2.25673e+08  1195448    1.05%
Elapsed time = 51.00 sec. (62309.44 ticks, tree = 62.42 MB, solutions = 16)
 123563 98380   2.25804e+08    32   2.28078e+08   2.25673e+08  1265727    1.05%
 123564 98380   2.25913e+08    29   2.28078e+08   2.25673e+08  1265769    1.05%
 123565 98381   2.26563e+08    29   2.28078e+08   2.25673e+08  1265778    1.05%
 123566 98382   2.26683e+08    27   2.28078e+08   2.25673e+08  1265796    1.05%
 123567 98383   2.26683e+08    27   2.28078e+08   2.25673e+08  1265797    1.05%
 123568 98384   2.26914e+08    26   2.28078e+08   2.25673e+08  1265798    1.05%
 123569 98385   2.26914e+08    28   2.28078e+08   2.25673e+08  1265801    1.05%
 123570 98384    infeasible         2.28078e+08   2.25673e+08  1265801    1.05%
 123571 98384   2.27547e+08    25   2.28078e+08   2.25673e+08  1265815    1.05%
 123572 98384   2.28064e+08    24   2.28078e+08   2.25673e+08  1265818    1.05%
Elapsed time = 54.41 sec. (66128.25 ticks, tree = 66.21 MB, solutions = 16)
 131096 104790   2.27333e+08    23   2.28078e+08   2.25673e+08  1334500    1.05%
 131097 104790   2.27656e+08    22   2.28078e+08   2.25673e+08  1334502    1.05%
 131098 104789        cutoff         2.28078e+08   2.25673e+08  1334507    1.05%
 131099 104788        cutoff         2.28078e+08   2.25673e+08  1334609    1.05%
 131100 104789   2.25673e+08    34   2.28078e+08   2.25673e+08  1334698    1.05%
 131101 104790   2.25673e+08    33   2.28078e+08   2.25673e+08  1334701    1.05%
 131102 104791   2.25673e+08    33   2.28078e+08   2.25673e+08  1334726    1.05%
 131103 104792   2.26516e+08    32   2.28078e+08   2.25673e+08  1334781    1.05%
 131104 104792   2.26518e+08    35   2.28078e+08   2.25673e+08  1334786    1.05%
 131105 104793   2.26534e+08    33   2.28078e+08   2.25673e+08  1334787    1.05%
Elapsed time = 57.81 sec. (69954.41 ticks, tree = 70.18 MB, solutions = 16)
 138559 111176        cutoff         2.28078e+08   2.25673e+08  1409283    1.05%
 138560 111175        cutoff         2.28078e+08   2.25673e+08  1409355    1.05%
 138561 111174        cutoff         2.28078e+08   2.25673e+08  1409428    1.05%
 138562 111174   2.27310e+08    37   2.28078e+08   2.25673e+08  1409540    1.05%
 138563 111174   2.27319e+08    37   2.28078e+08   2.25673e+08  1409554    1.05%
 138564 111174   2.27552e+08    37   2.28078e+08   2.25673e+08  1409555    1.05%
 138565 111175   2.27552e+08    34   2.28078e+08   2.25673e+08  1409563    1.05%
 138566 111174        cutoff         2.28078e+08   2.25673e+08  1409567    1.05%
 138567 111173        cutoff         2.28078e+08   2.25673e+08  1409570    1.05%
 138568 111174   2.25723e+08    34   2.28078e+08   2.25673e+08  1409688    1.05%
Elapsed time = 61.23 sec. (73792.21 ticks, tree = 74.26 MB, solutions = 16)
 145575 117289   2.26688e+08    34   2.28078e+08   2.25673e+08  1484062    1.05%
 145576 117290   2.26688e+08    34   2.28078e+08   2.25673e+08  1484066    1.05%
 145577 117291   2.26688e+08    36   2.28078e+08   2.25673e+08  1484070    1.05%
 145578 117292   2.26750e+08    36   2.28078e+08   2.25673e+08  1484079    1.05%
 145579 117293   2.26762e+08    38   2.28078e+08   2.25673e+08  1484081    1.05%
 145580 117294   2.26765e+08    37   2.28078e+08   2.25673e+08  1484082    1.05%
 145581 117295   2.26769e+08    38   2.28078e+08   2.25673e+08  1484084    1.05%
 145582 117296   2.26772e+08    38   2.28078e+08   2.25673e+08  1484086    1.05%
 145583 117297   2.26773e+08    38   2.28078e+08   2.25673e+08  1484087    1.05%
 145584 117296        cutoff         2.28078e+08   2.25673e+08  1484093    1.05%
Elapsed time = 64.62 sec. (77610.47 ticks, tree = 78.01 MB, solutions = 16)
 153102 123783   2.25673e+08    18   2.28078e+08   2.25673e+08  1556054    1.05%
 153103 123784   2.25673e+08    17   2.28078e+08   2.25673e+08  1556057    1.05%
 153104 123785   2.25673e+08    17   2.28078e+08   2.25673e+08  1556060    1.05%
 153105 123786   2.25673e+08    17   2.28078e+08   2.25673e+08  1556075    1.05%
 153106 123787   2.25673e+08    18   2.28078e+08   2.25673e+08  1556084    1.05%
 153107 123788   2.25673e+08    21   2.28078e+08   2.25673e+08  1556110    1.05%
 153108 123789   2.25673e+08    17   2.28078e+08   2.25673e+08  1556113    1.05%
 153109 123790   2.25673e+08    20   2.28078e+08   2.25673e+08  1556143    1.05%
 153110 123791   2.25673e+08    20   2.28078e+08   2.25673e+08  1556145    1.05%
 153111 123792   2.25673e+08    20   2.28078e+08   2.25673e+08  1556156    1.05%
Elapsed time = 68.01 sec. (81434.33 ticks, tree = 82.05 MB, solutions = 16)
 160369 129706   2.25847e+08    35   2.28078e+08   2.25673e+08  1623641    1.05%
 160370 129707   2.25848e+08    34   2.28078e+08   2.25673e+08  1623643    1.05%
 160371 129708   2.25858e+08    33   2.28078e+08   2.25673e+08  1623667    1.05%
 160372 129709   2.25858e+08    35   2.28078e+08   2.25673e+08  1623669    1.05%
 160373 129710   2.25858e+08    34   2.28078e+08   2.25673e+08  1623679    1.05%
 160374 129710   2.25858e+08    32   2.28078e+08   2.25673e+08  1623704    1.05%
 160375 129710   2.25858e+08    32   2.28078e+08   2.25673e+08  1623705    1.05%
 160376 129711   2.25858e+08    33   2.28078e+08   2.25673e+08  1623718    1.05%
 160377 129711   2.25858e+08    33   2.28078e+08   2.25673e+08  1623719    1.05%
 160378 129712   2.25861e+08    33   2.28078e+08   2.25673e+08  1623720    1.05%
Elapsed time = 71.39 sec. (85254.49 ticks, tree = 85.71 MB, solutions = 16)
*166851+133826                       2.27970e+08   2.25673e+08             1.01%
 167122 134049   2.25673e+08    24   2.27970e+08   2.25673e+08  1700428    1.01%
 167123 134050   2.25673e+08    24   2.27970e+08   2.25673e+08  1700464    1.01%
 167124 134051   2.25673e+08    23   2.27970e+08   2.25673e+08  1700466    1.01%
 167125 134052   2.27365e+08    25   2.27970e+08   2.25673e+08  1700589    1.01%
 167126 134051        cutoff         2.27970e+08   2.25673e+08  1700592    1.01%
 167127 134050        cutoff         2.27970e+08   2.25673e+08  1700596    1.01%
 167128 134051   2.25673e+08    36   2.27970e+08   2.25673e+08  1700745    1.01%
 167129 134052   2.25673e+08    27   2.27970e+08   2.25673e+08  1700788    1.01%
 167130 134053   2.25673e+08    27   2.27970e+08   2.25673e+08  1700797    1.01%
 167131 134054   2.25673e+08    28   2.27970e+08   2.25673e+08  1700813    1.01%
Elapsed time = 74.83 sec. (89087.03 ticks, tree = 89.91 MB, solutions = 17)
 174129 139960   2.25673e+08    22   2.27970e+08   2.25673e+08  1771683    1.01%
 174130 139961   2.25673e+08    23   2.27970e+08   2.25673e+08  1771685    1.01%
 174131 139960        cutoff         2.27970e+08   2.25673e+08  1771715    1.01%
 174132 139961   2.25673e+08    23   2.27970e+08   2.25673e+08  1771717    1.01%
 174133 139962   2.25673e+08    22   2.27970e+08   2.25673e+08  1771718    1.01%
 174134 139963   2.25804e+08    35   2.27970e+08   2.25673e+08  1771767    1.01%
 174135 139964   2.25695e+08    29   2.27970e+08   2.25673e+08  1771809    1.01%
 174136 139965   2.25728e+08    33   2.27970e+08   2.25673e+08  1771871    1.01%
 174137 139966   2.25728e+08    33   2.27970e+08   2.25673e+08  1771873    1.01%
 174138 139967   2.25731e+08    32   2.27970e+08   2.25673e+08  1771887    1.01%
Elapsed time = 78.20 sec. (92911.81 ticks, tree = 93.47 MB, solutions = 17)
 181950 146552   2.25673e+08    29   2.27970e+08   2.25673e+08  1844251    1.01%
 181951 146553   2.25673e+08    27   2.27970e+08   2.25673e+08  1844261    1.01%
 181952 146554   2.25673e+08    24   2.27970e+08   2.25673e+08  1844265    1.01%
 181953 146555   2.25673e+08    28   2.27970e+08   2.25673e+08  1844313    1.01%
 181954 146556   2.25673e+08    28   2.27970e+08   2.25673e+08  1844320    1.01%
 181955 146557   2.26223e+08    30   2.27970e+08   2.25673e+08  1844402    1.01%
 181956 146558   2.26223e+08    31   2.27970e+08   2.25673e+08  1844404    1.01%
 181957 146559   2.26223e+08    32   2.27970e+08   2.25673e+08  1844405    1.01%
 181958 146560   2.26223e+08    31   2.27970e+08   2.25673e+08  1844409    1.01%
 181959 146561   2.26223e+08    31   2.27970e+08   2.25673e+08  1844410    1.01%
Elapsed time = 81.58 sec. (96733.23 ticks, tree = 97.54 MB, solutions = 17)
 190175 153850   2.25673e+08    25   2.27970e+08   2.25673e+08  1915673    1.01%
 190176 153851   2.25673e+08    28   2.27970e+08   2.25673e+08  1915682    1.01%
 190177 153852   2.25673e+08    25   2.27970e+08   2.25673e+08  1915696    1.01%
 190178 153853   2.25673e+08    27   2.27970e+08   2.25673e+08  1915700    1.01%
 190179 153854   2.25673e+08    27   2.27970e+08   2.25673e+08  1915701    1.01%
 190180 153855   2.25673e+08    25   2.27970e+08   2.25673e+08  1915703    1.01%
 190181 153856   2.25674e+08    38   2.27970e+08   2.25673e+08  1915798    1.01%
 190182 153857   2.25674e+08    38   2.27970e+08   2.25673e+08  1915799    1.01%
 190183 153858   2.25674e+08    36   2.27970e+08   2.25673e+08  1915800    1.01%
 190184 153859   2.25674e+08    36   2.27970e+08   2.25673e+08  1915803    1.01%
Elapsed time = 84.93 sec. (100553.34 ticks, tree = 101.93 MB, solutions = 17)
 197111 159535   2.25748e+08    31   2.27970e+08   2.25673e+08  1984117    1.01%
 197112 159536   2.25814e+08    34   2.27970e+08   2.25673e+08  1984145    1.01%
 197113 159537   2.25814e+08    35   2.27970e+08   2.25673e+08  1984154    1.01%
 197114 159538   2.25814e+08    35   2.27970e+08   2.25673e+08  1984155    1.01%
 197115 159539   2.25820e+08    36   2.27970e+08   2.25673e+08  1984160    1.01%
 197116 159540   2.25821e+08    36   2.27970e+08   2.25673e+08  1984161    1.01%
 197117 159541   2.25821e+08    34   2.27970e+08   2.25673e+08  1984162    1.01%
 197118 159542   2.25824e+08    36   2.27970e+08   2.25673e+08  1984164    1.01%
 197119 159543   2.25824e+08    37   2.27970e+08   2.25673e+08  1984165    1.01%
 197120 159544   2.25824e+08    36   2.27970e+08   2.25673e+08  1984166    1.01%
Elapsed time = 88.30 sec. (104370.64 ticks, tree = 106.53 MB, solutions = 17)
 202751 164213   2.25673e+08    24   2.27970e+08   2.25673e+08  2045385    1.01%
 202752 164214   2.25673e+08    26   2.27970e+08   2.25673e+08  2045400    1.01%
 202753 164215   2.25673e+08    29   2.27970e+08   2.25673e+08  2045402    1.01%
 202754 164216   2.25673e+08    27   2.27970e+08   2.25673e+08  2045405    1.01%
 202755 164217   2.25673e+08    26   2.27970e+08   2.25673e+08  2045406    1.01%
 202756 164218   2.25673e+08    24   2.27970e+08   2.25673e+08  2045415    1.01%
 202757 164219   2.25673e+08    24   2.27970e+08   2.25673e+08  2045417    1.01%
 202758 164220   2.25673e+08    24   2.27970e+08   2.25673e+08  2045418    1.01%
 202759 164221   2.25673e+08    28   2.27970e+08   2.25673e+08  2045429    1.01%
 202760 164222   2.25673e+08    26   2.27970e+08   2.25673e+08  2045430    1.01%
Elapsed time = 91.67 sec. (108207.21 ticks, tree = 109.36 MB, solutions = 17)
 207018 167818   2.25673e+08    21   2.27970e+08   2.25673e+08  2090371    1.01%
 207019 167819   2.25673e+08    23   2.27970e+08   2.25673e+08  2090377    1.01%
 207020 167820   2.25673e+08    23   2.27970e+08   2.25673e+08  2090388    1.01%
 207021 167821   2.25673e+08    24   2.27970e+08   2.25673e+08  2090419    1.01%
 207022 167822   2.25673e+08    24   2.27970e+08   2.25673e+08  2090421    1.01%
 207023 167823   2.25673e+08    23   2.27970e+08   2.25673e+08  2090428    1.01%
 207024 167824   2.25673e+08    21   2.27970e+08   2.25673e+08  2090431    1.01%
 207025 167825   2.25673e+08    25   2.27970e+08   2.25673e+08  2090447    1.01%
 207026 167826   2.25673e+08    24   2.27970e+08   2.25673e+08  2090456    1.01%
 207027 167827   2.25673e+08    25   2.27970e+08   2.25673e+08  2090459    1.01%
Elapsed time = 94.92 sec. (112026.44 ticks, tree = 111.56 MB, solutions = 17)
 213587 172943   2.25678e+08    35   2.27970e+08   2.25673e+08  2161961    1.01%
 213588 172944   2.25678e+08    35   2.27970e+08   2.25673e+08  2161962    1.01%
 213589 172945   2.25678e+08    35   2.27970e+08   2.25673e+08  2161964    1.01%
 213590 172946   2.25678e+08    35   2.27970e+08   2.25673e+08  2161971    1.01%
 213591 172947   2.25679e+08    33   2.27970e+08   2.25673e+08  2161975    1.01%
 213592 172948   2.25679e+08    35   2.27970e+08   2.25673e+08  2161976    1.01%
 213593 172949   2.25679e+08    35   2.27970e+08   2.25673e+08  2161977    1.01%
 213594 172950   2.25679e+08    35   2.27970e+08   2.25673e+08  2161979    1.01%
 213595 172951   2.25679e+08    35   2.27970e+08   2.25673e+08  2161981    1.01%
 213596 172952   2.25679e+08    35   2.27970e+08   2.25673e+08  2161982    1.01%
Elapsed time = 98.33 sec. (115850.99 ticks, tree = 114.71 MB, solutions = 17)

Cover cuts applied:  461
Mixed integer rounding cuts applied:  9
Gomory fractional cuts applied:  7

Root node processing (before b&c):
  Real time             =    0.05 sec. (51.85 ticks)
Sequential b&c:
  Real time             =   99.95 sec. (117712.78 ticks)
                          ------------
Total (root+branch&cut) =  100.00 sec. (117764.63 ticks)

Solution pool: 17 solutions saved.

MIP - Time limit exceeded, integer feasible:  Objective =  2.2796999100e+08
Current MIP best bound =  2.2567326400e+08 (gap = 2.29673e+06, 1.01%)
Solution time =  100.00 sec.  Iterations = 2193727  Nodes = 217371 (176120)
Deterministic time = 117764.63 ticks  (1177.64 ticks/sec)


Incumbent solution written to file '/tmp/tmp_n0pmU.cplex.sol'.
